CMD:
./solvers/bin/cadical --plain --no-reduce -t 1600 ./data/cnfs//bobsynthetic2/bobsynthetic2.33.cnf

c --- [ banner ] -------------------------------------------------------------
c 
c CaDiCaL SAT Solver
c Copyright (c) 2016-2024
c A. Biere, M. Fleury, N. Froleyks, K. Fazekas, F. Pollitt, T. Faller
c JKU Linz, University of Freiburg, TU Wien
c 
c Version 2.1.3 5296d3d2a9bf48c154ab2acb5e44625776d821bf
c g++ (Gentoo 12.3.1_p20230526 p2) 12.3.1 20230526 -Wall -Wextra -O3 -DNDEBUG
c Sat Aug 9 07:26:21 PDT 2025 Linux cedar2.int.cedar.computecanada.ca 5.14.0-362.24.2.el9_3.x86_64 x86_64
c 
c --- [ limit ] --------------------------------------------------------------
c 
c setting time limit to 1600 seconds real time (due to '-t 1600')
c 
c --- [ parsing input ] ------------------------------------------------------
c 
c reading DIMACS file from './data/cnfs//bobsynthetic2/bobsynthetic2.33.cnf'
c opening file to read './data/cnfs//bobsynthetic2/bobsynthetic2.33.cnf'
c found 'p cnf 681084 2022350' header
c parsed 2022350 clauses in 0.31 seconds process time
c 
c --- [ options ] ------------------------------------------------------------
c 
c   --compact=false                (different from default 'true')
c   --decompose=false              (different from default 'true')
c   --deduplicate=false            (different from default 'true')
c   --elim=false                   (different from default 'true')
c   --probe=false                  (different from default 'true')
c   --reduce=false                 (different from default 'true')
c   --subsume=false                (different from default 'true')
c   --ternary=false                (different from default 'true')
c   --transred=false               (different from default 'true')
c   --vivify=false                 (different from default 'true')
c 
c --- [ solving ] ------------------------------------------------------------
c 
c time measured in process time since initialization
c 
c  seconds   reductions  redundant   irredundant
c          MB    restarts       trail        variables
c           level   conflicts       glue           remaining
c 
c *  0.31 312  0 0   0    0    0  0% 0 2008129 668878 98%
c {  0.32 313  0 0   0    0    0  0% 0 2008129 668878 98%
c i  0.33 314 203 0   0    9    7  2% 2 2008129 668872 98%
c i  0.33 314 203 0   0   20   15  2% 2 2008129 668868 98%
c i  0.33 314 202 0   0   27   21  2% 2 2008129 668862 98%
c i  0.33 314 202 0   0   31   23  2% 2 2008129 668851 98%
c i  0.33 314 201 0   0   41   29  2% 2 2008129 668844 98%
c i  0.33 314 201 0   0   42   29  2% 2 2008129 668840 98%
c i  0.33 314 201 0   0   46   32  2% 2 2008129 668833 98%
c i  0.34 314 200 0   0   53   38  2% 2 2008129 668827 98%
c i  0.34 314 218 0   9  422  401  2% 3 2008129 668816 98%
c i  0.34 314 219 0   9  425  402  2% 3 2008129 668811 98%
c i  0.34 314 219 0   9  427  403  2% 3 2008129 668800 98%
c i  0.34 314 209 0   9  451  425  2% 3 2008129 668791 98%
c i  0.34 314 222 0   9  496  468  2% 3 2008129 668788 98%
c i  0.34 314 221 0   9  499  468  2% 3 2008129 668776 98%
c i  0.35 314 212 0  11  573  535  2% 3 2008129 668766 98%
c i  0.35 314 212 0  11  574  535  2% 3 2008129 668763 98%
c i  0.35 314 210 0  11  602  561  2% 3 2008129 668753 98%
c i  0.35 314 209 0  11  605  563  2% 3 2008129 668747 98%
c 
c  seconds    reductions  redundant   irredundant
c          MB     restarts       trail        variables
c            level   conflicts       glue           remaining
c 
c i  0.35 314 207 0  11  616  573  2% 3 2008129 668740 98%
c i  0.35 314 206 0  11  624  579  2% 3 2008129 668734 98%
c i  0.35 314 206 0  11  625  579  2% 3 2008129 668730 98%
c i  0.35 314 204 0  11  636  584  2% 3 2008129 668712 98%
c i  0.35 314 202 0  11  657  600  2% 3 2008129 668702 98%
c i  0.35 314 201 0  11  664  603  2% 3 2008129 668690 98%
c i  0.35 314 200 0  11  668  604  2% 3 2008129 668686 98%
c i  0.35 314 191 0  11  718  648  2% 3 2008129 668662 98%
c i  0.35 314 190 0  11  726  655  2% 3 2008129 668655 98%
c i  0.35 314 189 0  11  731  659  2% 3 2008129 668647 98%
c i  0.35 314 187 0  11  740  667  2% 3 2008129 668643 98%
c i  0.35 314 185 0  11  750  674  2% 3 2008129 668638 98%
c i  0.35 314 185 0  11  751  674  2% 3 2008129 668632 98%
c i  0.35 314 180 0  11  786  706  2% 3 2008129 668626 98%
c i  0.35 314 179 0  11  792  710  2% 3 2008129 668620 98%
c i  0.35 314 179 0  11  797  710  2% 3 2008129 668599 98%
c i  0.35 314 178 0  11  803  713  2% 3 2008129 668592 98%
c i  0.35 314 177 0  11  811  720  2% 3 2008129 668587 98%
c i  0.35 314 169 0  14  862  767  2% 3 2008129 668569 98%
c i  0.35 314 165 0  14  893  796  2% 3 2008129 668555 98%
c 
c  seconds    reductions  redundant   irredundant
c          MB     restarts       trail        variables
c            level   conflicts       glue           remaining
c 
c i  0.35 314 165 0  14  901  801  2% 3 2008129 668542 98%
c i  0.35 314 165 0  16  949  844  2% 3 2008129 668529 98%
c i  0.35 314 164 0  16  958  850  2% 3 2008129 668523 98%
c i  0.35 314 163 0  16  966  855  2% 3 2008129 668517 98%
... skipped 67938 lines ...
v -680575 680576 -680577 680578 680579 -680580 -680581 -680582 -680583 -680584
v -680585 -680586 680587 -680588 680589 680590 -680591 -680592 -680593 -680594
v -680595 -680596 -680597 680598 -680599 680600 680601 -680602 -680603 -680604
v -680605 -680606 -680607 -680608 680609 -680610 680611 680612 -680613 -680614
v -680615 -680616 -680617 -680618 -680619 680620 -680621 680622 680623 -680624
v -680625 -680626 -680627 -680628 -680629 -680630 680631 680632 -680633 680634
v -680635 680636 -680637 680638 -680639 -680640 -680641 -680642 -680643 680644
v -680645 -680646 -680647 -680648 -680649 -680650 680651 -680652 680653 680654
v 680655 680656 -680657 -680658 -680659 680660 -680661 -680662 -680663 680664
v 680665 -680666 -680667 -680668 680669 -680670 -680671 -680672 -680673 680674
v -680675 680676 680677 -680678 -680679 680680 -680681 680682 -680683 680684
v -680685 680686 -680687 680688 -680689 680690 -680691 680692 -680693 680694
v -680695 680696 -680697 680698 -680699 680700 -680701 680702 -680703 680704
v -680705 680706 -680707 680708 -680709 680710 -680711 680712 -680713 680714
v -680715 680716 -680717 680718 -680719 680720 -680721 680722 -680723 680724
v -680725 680726 -680727 680728 -680729 680730 -680731 680732 -680733 680734
v -680735 680736 -680737 680738 -680739 680740 -680741 680742 -680743 680744
v -680745 680746 -680747 680748 -680749 680750 -680751 680752 -680753 680754
v -680755 680756 -680757 680758 -680759 680760 -680761 680762 -680763 680764
v -680765 680766 -680767 680768 -680769 680770 -680771 680772 -680773 680774
v -680775 680776 -680777 680778 -680779 680780 -680781 680782 -680783 680784
v -680785 680786 -680787 680788 -680789 680790 -680791 680792 -680793 680794
v -680795 680796 -680797 680798 -680799 680800 -680801 680802 -680803 680804
v -680805 680806 -680807 680808 -680809 680810 -680811 680812 -680813 680814
v -680815 680816 -680817 680818 -680819 680820 -680821 680822 -680823 680824
v -680825 680826 -680827 680828 -680829 680830 -680831 680832 -680833 680834
v -680835 680836 -680837 680838 -680839 680840 -680841 680842 -680843 680844
v -680845 680846 -680847 680848 -680849 680850 -680851 680852 -680853 680854
v -680855 680856 -680857 680858 -680859 680860 -680861 680862 -680863 680864
v -680865 680866 -680867 680868 -680869 680870 -680871 680872 -680873 680874
v -680875 680876 -680877 680878 -680879 680880 -680881 680882 -680883 680884
v -680885 680886 -680887 680888 -680889 680890 -680891 680892 -680893 680894
v -680895 680896 -680897 680898 -680899 680900 -680901 680902 -680903 680904
v -680905 680906 -680907 680908 -680909 680910 -680911 680912 -680913 680914
v -680915 680916 -680917 680918 -680919 680920 -680921 680922 -680923 680924
v -680925 680926 -680927 680928 -680929 680930 -680931 680932 -680933 680934
v -680935 680936 -680937 680938 -680939 680940 -680941 680942 -680943 680944
v -680945 680946 -680947 680948 -680949 680950 -680951 680952 -680953 680954
v -680955 680956 -680957 680958 -680959 680960 -680961 680962 -680963 680964
v -680965 680966 -680967 680968 -680969 680970 -680971 680972 -680973 680974
v -680975 680976 -680977 680978 -680979 680980 -680981 680982 -680983 680984
v -680985 680986 -680987 680988 -680989 680990 -680991 680992 -680993 680994
v -680995 680996 -680997 680998 -680999 681000 -681001 681002 -681003 681004
v -681005 681006 -681007 681008 -681009 681010 -681011 681012 -681013 681014
v -681015 681016 -681017 681018 -681019 681020 -681021 681022 -681023 681024
v -681025 681026 -681027 681028 -681029 681030 -681031 681032 -681033 681034
v -681035 681036 -681037 681038 -681039 681040 -681041 681042 -681043 681044
v -681045 681046 -681047 681048 -681049 681050 -681051 681052 -681053 681054
v -681055 681056 -681057 681058 -681059 681060 -681061 -681062 681063 681064
v -681065 -681066 681067 681068 -681069 -681070 681071 681072 681073 -681074
v -681075 681076 -681077 -681078 -681079 -681080 -681081 681082 681083 -681084
v 0
c 
c --- [ run-time profiling ] -------------------------------------------------
c 
c process time taken by individual solving procedures
c (percentage relative to process time for solving)
c 
c         0.31  109.88% parse
c         0.28   99.97% search
c         0.24   84.18% stable
c         0.03   11.60% unstable
c         0.01    4.16% lucky
c         0.00    0.00% simplify
c   =================================
c         0.28   45.13% solve
c 
c last line shows process time for solving
c (percentage relative to total process time)
c 
c --- [ statistics ] ---------------------------------------------------------
c 
c chronological:               690        63.24 %  of conflicts
c conflicts:                  1091      3840.49    per second
c decisions:                  9498     33434.48    per second
c fixed:                     14497         2.13 %  of all variables
c learned:                    1041        95.42 %  per conflict
c learned_lits:              28544       100.00 %  learned literals
c minimized:                     0         0.00 %  learned literals
c shrunken:                   9990        35.00 %  learned literals
c minishrunken:               2615         9.16 %  learned literals
c otfs:                          7         0.64 %  of conflict
c propagations:            1547740         5.45 M  per second
c rephased:                      1      1091.00    interval
c restarts:                     16        68.19    interval
c stabilizing:                   1         8.25 %  of conflicts
c subsumed:                     15         0.00 %  of all clauses
c strengthened:                  7         0.00 %  of all clauses
c 
c seconds are measured in process time for solving
c 
c --- [ resources ] ----------------------------------------------------------
c 
c total process time since initialization:         0.63    seconds
c total real time since initialization:            0.96    seconds
c maximum resident set size of process:          320.91    MB
c 
c --- [ shutting down ] ------------------------------------------------------
c 
c exit 10
